61576 58045
8109 14593
12728 21839
24577 30308
18165 35972
1849 24080
7987 19019
16611 48606
9772 12065
33969 27679
7298 29218
11917 9962
22099 7414
36129 30418
25458 1021
39913 48442
35506 31276
16155 17439
3378 40969
42387 4480
13528 59650
10367 61556
22135 13994
50676 20351
22503 16830
62787 40641
6028 29228
15756 55595
56495 4472
3542 57718
14365 63887
3069 54135
23070 9498
14974 38500
55930 14123
40091 39632
15693 35170
44412 46357
11876 1675
65152 17166
28908 44654
50550 34622
42409 52219
6022 31733
37105 1385
41136 14702
9240 33445
54368 53398
38898 7858
60886 25711
59264 32425
48084 34599
56146 15707
